92	0

0	3	2	3	4
9	1	6
5	3	5	7	14
7	5	6	7	10	11	14
3	3	6	10	11
2	3	8	9	12
10	5	22	23	26	31	32
1	7	13	15	16	17	18	20	21
1	7	13	15	16	17	18	20	21
9	5	22	23	26	31	32
10	7	25	27	28	29	30	35	38
2	5	13	16	17	19	20
2	6	22	23	24	26	31	32
10	5	22	23	26	31	32
2	2	19	24
8	6	25	27	28	29	30	35
9	6	25	27	28	29	30	35
2	2	19	24
3	5	22	23	26	31	32
6	7	25	27	28	29	30	35	38
10	6	25	27	28	29	30	35
4	6	25	27	28	29	30	35
2	7	25	27	28	29	30	35	38
3	7	25	27	28	29	30	35	38
3	7	37	39	40	42	43	44	50
8	7	37	39	40	42	43	44	50
2	8	33	34	37	39	40	42	43	50
10	5	45	46	47	48	49
1	4	33	34	36	41
9	5	45	46	47	48	49
6	4	33	34	36	41
6	4	33	34	36	41
6	6	44	45	46	47	48	49
8	5	45	46	47	48	49
3	7	37	39	40	42	43	44	50
2	7	37	39	40	42	43	44	50
9	5	51	52	53	60	61
9	3	43	44	50
8	5	47	49	51	60	61
7	5	45	46	47	48	49
5	3	43	44	50
10	4	52	53	60	61
4	5	45	46	47	48	49
7	4	52	53	60	61
2	5	51	52	53	60	61
5	4	52	53	60	61
7	2	52	53
2	5	51	52	53	60	61
6	2	52	53
10	4	52	53	60	61
7	8	54	55	56	57	58	59	62	65
1	8	54	55	56	57	58	59	62	65
1	8	54	55	56	57	58	59	62	65
3	3	66	67	68
2	2	63	64
1	3	63	64	69
6	2	72	77
2	2	63	64
9	3	75	76	81
4	3	63	64	69
4	3	63	64	69
3	3	66	67	68
1	3	66	67	68
1	3	66	67	68
4	7	70	71	72	73	74	77	79
1	7	70	71	72	73	74	77	79
1	7	70	71	72	73	74	77	79
2	4	72	73	77	79
4	4	72	73	77	79
4	3	75	76	78
9	4	80	82	83	84
1	3	75	76	78
4	3	75	76	81
8	4	80	82	83	84
4	4	80	82	83	84
9	4	85	86	88	89
8	2	82	84
2	3	80	81	83
6	3	80	81	83
8	4	85	86	88	89
3	2	82	84
9	2	86	88
2	4	85	86	88	89
7	4	85	86	88	89
3	2	87	91
1	2	87	91
8	1	90
7	2	90	91
8	2	90	91
10	1	92
6	1	92
0	0
